small
0 31 0.49
1 33 0.6
2 28 0.4
3 34 0.21
4 27 0.86
5 33 0.72
6 31 0.46
7 31 0.62
8 28 1.35
9 35 0.41
10 25 0.83
11 30 0.56
12 27 0.36
13 30 0.53
14 28 0.56
medium
0 291 37.39
1 269 92.55
2 282 87.07
3 279 58.49
4 278 50.72
5 281 57.34
6 275 53.44
7 276 65.75
8 275 49.41
9 290 52.26
10 282 49.47
11 267 80.92
12 271 70.24
13 300 27.26
14 296 38.9
large
0 1468 590.76
1 1475 593.03
2 1466 600.54
3 1488 600.36
4 1504 600.23
5 1508 600.63
6 1469 600.27
7 1565 344.14
8 1475 600.32
9 1489 600.31
10 1506 600.31
11 1494 600.34
12 1489 600.2
13 1470 600.5
14 1512 600.32
